certificates/rado_a11_c190_N25.cnf
c Rad2 upper bound instance: x1 + 11*x2 - x3 = 190, interval [1,25]
p cnf 25 112
1 9 18 0
-1 -9 -18 0
1 19 20 0
-1 -19 -20 0
2 10 18 0
-2 -10 -18 0
2 19 21 0
-2 -19 -21 0
3 11 18 0
-3 -11 -18 0
3 19 22 0
-3 -19 -22 0
1 4 17 0
-1 -4 -17 0
4 12 18 0
-4 -12 -18 0
4 19 23 0
-4 -19 -23 0
2 5 17 0
-2 -5 -17 0
5 13 18 0
-5 -13 -18 0
5 19 24 0
-5 -19 -24 0
3 6 17 0
-3 -6 -17 0
6 14 18 0
-6 -14 -18 0
6 19 25 0
-6 -19 -25 0
4 7 17 0
-4 -7 -17 0
7 15 18 0
-7 -15 -18 0
5 8 17 0
-5 -8 -17 0
8 16 18 0
-8 -16 -18 0
6 9 17 0
-6 -9 -17 0
9 17 18 0
-9 -17 -18 0
7 10 17 0
-7 -10 -17 0
10 18 0
-10 -18 0
8 11 17 0
-8 -11 -17 0
11 18 19 0
-11 -18 -19 0
9 12 17 0
-9 -12 -17 0
12 18 20 0
-12 -18 -20 0
10 13 17 0
-10 -13 -17 0
13 18 21 0
-13 -18 -21 0
11 14 17 0
-11 -14 -17 0
14 18 22 0
-14 -18 -22 0
1 15 16 0
-1 -15 -16 0
12 15 17 0
-12 -15 -17 0
15 18 23 0
-15 -18 -23 0
2 16 0
-2 -16 0
13 16 17 0
-13 -16 -17 0
16 18 24 0
-16 -18 -24 0
3 16 17 0
-3 -16 -17 0
14 17 0
-14 -17 0
17 18 25 0
-17 -18 -25 0
4 16 18 0
-4 -16 -18 0
15 17 18 0
-15 -17 -18 0
5 16 19 0
-5 -16 -19 0
16 17 19 0
-16 -17 -19 0
6 16 20 0
-6 -16 -20 0
17 20 0
-17 -20 0
7 16 21 0
-7 -16 -21 0
17 18 21 0
-17 -18 -21 0
8 16 22 0
-8 -16 -22 0
17 19 22 0
-17 -19 -22 0
9 16 23 0
-9 -16 -23 0
17 20 23 0
-17 -20 -23 0
10 16 24 0
-10 -16 -24 0
17 21 24 0
-17 -21 -24 0
11 16 25 0
-11 -16 -25 0
17 22 25 0
-17 -22 -25 0
