certificates/rado_a11_c190_N25.drat
-22 -24 -25 0
17 -23 22 0
-17 22 -25 0
-24 -25 0
d -22 -24 -25 0
22 -25 0
d -17 22 -25 0
-25 0
17 -22 0
-22 24 0
24 0
22 0
17 0
-14 0
-20 0
-19 0
-21 0
1 0
6 0
2 0
-4 0
-3 0
-9 0
-16 0
-5 0
23 0
11 0
18 0
7 0
0
